p cnf 23 25
21 -7 18 0
-10 -5 23 0
16 1 -9 0
-2 -18 -3 0
6 -16 -23 0
14 11 -16 0
-9 -18 17 0
7 -6 -21 0
-11 17 19 0
-15 23 10 0
-13 16 1 0
12 7 21 0
4 2 -15 0
23 -22 10 0
10 8 14 0
13 -15 -2 0
-19 -23 -14 0
-5 -13 23 0
16 13 -1 0
5 -18 -19 0
1 22 11 0
23 15 -10 0
20 13 22 0
-16 -20 -5 0
23 23 -9 0
